Gurobi Optimizer version 9.1.2 build v9.1.2rc0 (linux64)
Thread count: 36 physical cores, 72 logical processors, using up to 32 threads
Optimize a model with 12 rows, 57 columns and 590 nonzeros
Model fingerprint: 0xf32eec78
Model has 47 quadratic constraints
Coefficient statistics:
  Matrix range     [2e-05, 3e+00]
  QMatrix range    [1e+00, 1e+00]
  QLMatrix range   [1e+00, 1e+00]
  Objective range  [8e-03, 7e-01]
  Bounds range     [1e+00, 1e+00]
  RHS range        [1e+00, 1e+00]
Presolve removed 9 rows and 0 columns

Continuous model is non-convex -- solving as a MIP.

Presolve removed 9 rows and 0 columns
Presolve time: 0.00s
Presolved: 189 rows, 57 columns, 443 nonzeros
Presolved model has 47 bilinear constraint(s)
Variable types: 57 continuous, 0 integer (0 binary)

Root relaxation: objective -1.743721e+00, 44 iterations, 0.00 seconds

    Nodes    |    Current Node    |     Objective Bounds      |     Work
 Expl Unexpl |  Obj  Depth IntInf | Incumbent    BestBd   Gap | It/Node Time

     0     0   -1.74372    0   38          -   -1.74372      -     -    0s
H    0     0                       0.6147548   -1.74372   384%     -    0s
     0     0   -1.64739    0    1    0.61475   -1.64739   368%     -    0s
H    0     0                      -1.6450460   -1.64739  0.14%     -    0s
     0     0     cutoff    0        -1.64505   -1.64505  0.00%     -    0s

Cutting planes:
  RLT: 25
  BQP: 3

Explored 1 nodes (76 simplex iterations) in 0.01 seconds
Thread count was 32 (of 72 available processors)

Solution count 2: -1.64505 0.614755 
No other solutions better than -1.64505

Optimal solution found (tolerance 1.00e-04)
Best objective -1.645045978473e+00, best bound -1.645045978473e+00, gap 0.0000%

User-callback calls 78, time in user-callback 0.00 sec
Gurobi Optimizer version 9.1.2 build v9.1.2rc0 (linux64)
Thread count: 36 physical cores, 72 logical processors, using up to 32 threads
Optimize a model with 60 rows, 300 columns and 15500 nonzeros
Model fingerprint: 0xc9990ed2
Model has 250 quadratic constraints
Coefficient statistics:
  Matrix range     [1e-06, 4e+00]
  QMatrix range    [1e+00, 1e+00]
  QLMatrix range   [1e+00, 1e+00]
  Objective range  [3e-04, 9e-01]
  Bounds range     [1e+00, 1e+00]
  RHS range        [1e+00, 1e+00]
Presolve removed 9 rows and 0 columns

Continuous model is non-convex -- solving as a MIP.

Presolve removed 9 rows and 0 columns
Presolve time: 0.01s
Presolved: 1051 rows, 300 columns, 14761 nonzeros
Presolved model has 250 bilinear constraint(s)
Variable types: 300 continuous, 0 integer (0 binary)

Root relaxation: objective -1.869549e+01, 376 iterations, 0.02 seconds

    Nodes    |    Current Node    |     Objective Bounds      |     Work
 Expl Unexpl |  Obj  Depth IntInf | Incumbent    BestBd   Gap | It/Node Time

     0     0  -18.69549    0  208          -  -18.69549      -     -    0s
H    0     0                      -3.5466001  -18.69549   427%     -    0s
     0     0  -16.73933    0  195   -3.54660  -16.73933   372%     -    0s
     0     0  -16.46590    0  199   -3.54660  -16.46590   364%     -    0s
     0     0  -16.46567    0  182   -3.54660  -16.46567   364%     -    0s
     0     0  -16.43144    0  131   -3.54660  -16.43144   363%     -    0s
     0     2  -16.43144    0  131   -3.54660  -16.43144   363%     -    0s
* 1656  1762              78     -12.4336476  -15.60492  25.5%  57.1    1s
* 1694  1762              87     -13.2215834  -15.60492  18.0%  56.4    1s
* 2069  1850              81     -13.3294690  -15.60492  17.1%  53.4    1s
* 2071  1850              82     -13.3300232  -15.60492  17.1%  53.4    1s
* 2390  1997              70     -13.3304605  -15.60492  17.1%  52.5    2s
* 2781  2041              68     -13.7833299  -15.60492  13.2%  50.3    2s
* 3003  1963              68     -14.0642403  -15.60492  11.0%  49.7    2s
* 3060  1934              73     -14.3089991  -15.60492  9.06%  49.8    2s
* 3320  1920              68     -14.8005188  -15.50348  4.75%  50.4    2s
* 3322  1920              69     -14.8005211  -15.50348  4.75%  50.4    2s
* 5046   330              65     -14.8036982  -15.50348  4.73%  57.2    3s
* 5048   330              66     -14.8038311  -15.50348  4.73%  57.1    3s
* 5049   330              66     -14.8038349  -15.50348  4.73%  57.1    3s
* 5783   391              90     -14.8158745  -15.50348  4.64%  57.7    4s
* 5784   391              90     -14.8158769  -15.50348  4.64%  57.7    4s
* 5847   391              78     -14.8159915  -15.50348  4.64%  57.8    4s
* 5848   391              78     -14.8159916  -15.50348  4.64%  57.8    4s
* 5849   391              76     -14.8160020  -15.50348  4.64%  57.8    4s
* 6288   554              80     -14.8605430  -15.50348  4.33%  56.9    4s
* 6424   571              73     -14.8616527  -15.50348  4.32%  56.3    4s
* 6425   571              73     -14.8616987  -15.50348  4.32%  56.3    4s
* 6427   571              72     -14.8617240  -15.50348  4.32%  56.3    4s
* 6583   571              63     -14.8622155  -15.50348  4.31%  55.9    4s
* 6722   571              65     -14.8673912  -15.50348  4.28%  55.8    4s
  7441   568  -15.24588   23   70  -14.86739  -15.36786  3.37%  56.1    5s
* 7978   683              51     -14.8675171  -15.36786  3.37%  55.5    5s
* 8038   683              67     -14.8695997  -15.36786  3.35%  55.4    5s
* 8835   823              53     -14.8703505  -15.36786  3.35%  54.5    5s
* 8842   823              53     -14.8703505  -15.36786  3.35%  54.4    5s
* 9124   910              74     -14.8703556  -15.36786  3.35%  53.9    5s
* 9288   910              52     -14.8709969  -15.36786  3.34%  53.5    5s
* 9534   993              64     -14.8710783  -15.36786  3.34%  53.1    5s
* 9537   993              63     -14.8711274  -15.36786  3.34%  53.0    5s
* 9538   993              63     -14.8711283  -15.36786  3.34%  53.0    5s
* 9685  1095              65     -14.8711514  -15.36786  3.34%  52.7    5s
* 9888  1095              57     -14.8720443  -15.36786  3.33%  52.3    5s
* 9890  1095              58     -14.8720464  -15.36786  3.33%  52.2    5s
*10206  1285              57     -14.8735772  -15.36786  3.32%  51.5    5s
*10210  1285              59     -14.8736436  -15.36786  3.32%  51.5    5s
*10299  1285              80     -14.8756472  -15.36786  3.31%  51.2    5s
*10801  1458              59     -14.8763633  -15.36786  3.30%  50.0    6s
*10804  1458              61     -14.8763666  -15.36786  3.30%  50.0    6s
*10805  1458              61     -14.8763669  -15.36786  3.30%  49.9    6s
*11137  1639              59     -14.8772189  -15.36786  3.30%  49.2    6s
*11138  1639              59     -14.8772664  -15.36786  3.30%  49.1    6s
*11142  1639              60     -14.8772769  -15.36786  3.30%  49.1    6s
*11570  1906              70     -14.8773805  -15.36786  3.30%  48.2    6s
*11575  1906              71     -14.8773830  -15.36786  3.30%  48.2    6s
*11577  1906              72     -14.8773839  -15.36786  3.30%  48.2    6s
*11578  1906              72     -14.8773851  -15.36786  3.30%  48.2    6s
*11660  1906              69     -14.8776412  -15.36786  3.30%  48.1    6s
*11662  1906              70     -14.8776413  -15.36786  3.30%  48.1    6s
*11664  1906              71     -14.8776590  -15.36786  3.29%  48.1    6s
*11884  1906              68     -14.8789129  -15.36786  3.29%  47.4    6s
*11885  1906              68     -14.8789142  -15.36786  3.29%  47.4    6s
*11968  1906              59     -14.8805337  -15.36786  3.27%  47.2    6s
*11969  1906              59     -14.8805346  -15.36786  3.27%  47.2    6s
*12958  2173              71     -14.8813482  -15.01283  0.88%  45.2    6s
*12961  2173              73     -14.8813528  -15.01283  0.88%  45.2    6s
*12962  2173              73     -14.8813528  -15.01283  0.88%  45.2    6s
*13253  2173              61     -14.8818466  -15.01283  0.88%  44.4    6s
*13255  2173              61     -14.8819633  -15.01283  0.88%  44.4    6s
*13420  2250              74     -14.8819723  -14.93777  0.37%  44.0    6s
*13425  2250              74     -14.8819749  -14.93777  0.37%  44.0    6s
*13509  2250              63     -14.8819858  -14.93295  0.34%  43.8    6s
*13549  2250              66     -14.8819873  -14.93295  0.34%  43.7    6s
*13621  2250              71     -14.8904199  -14.93295  0.29%  43.5    6s
*14038  2250              67     -14.8951083  -14.93295  0.25%  42.5    6s
*14742  1936              70     -14.8968445  -14.93295  0.24%  41.3    6s
*14901  1936              59     -14.8973530  -14.93295  0.24%  41.0    6s
*14966  1853              63     -14.8973903  -14.92477  0.18%  40.9    6s
*15115  1853              75     -14.8986350  -14.91610  0.12%  40.7    7s
*15650  1932              61     -14.8990418  -14.91610  0.11%  39.8    7s
*15785  1932              62     -14.8997967  -14.91281  0.09%  39.6    7s
*16824  2074              59     -14.9004888  -14.91281  0.08%  37.8    7s
*16826  2074              60     -14.9006387  -14.91281  0.08%  37.8    7s
*16827  2074              60     -14.9006401  -14.91281  0.08%  37.8    7s
*17640  2051              73     -14.9008032  -14.91281  0.08%  36.6    7s
*17642  2051              74     -14.9008183  -14.91281  0.08%  36.6    7s
*17702  2051              68     -14.9017173  -14.91281  0.07%  36.5    7s
*19563  1169              66     -14.9017292  -14.90432  0.02%  33.7    7s
*19625  1169              68     -14.9017313  -14.90409  0.02%  33.6    7s
*20765   943              63     -14.9017397  -14.90291  0.01%  32.1    7s

Explored 21767 nodes (670928 simplex iterations) in 7.89 seconds
Thread count was 32 (of 72 available processors)

Solution count 10: -14.9017 -14.9017 -14.9017 ... -14.8998

Optimal solution found (tolerance 1.00e-04)
Best objective -1.490173968999e+01, best bound -1.490291333337e+01, gap 0.0079%

User-callback calls 44564, time in user-callback 0.01 sec



objective value: -14.901739689992178
objective bound: -14.902913333370735
x_opt: [1.5408421653204565e-5, 1.0, 1.0, 0.0, 0.0, 0.0, 1.0, 1.0, 0.0, 0.0, 0.2600358804368666, 0.4148541598119885, 0.0, 1.0, 1.0, 1.0, 0.0, 1.0000000000000002, 0.0, 0.0, 0.010213792665643193, 1.0, 1.0, 1.0, 0.0, 1.0, 1.0, 1.0, 0.0, 0.9116316047731184, 1.0, 0.7887481722757127, 0.0, 0.203345571312817, 1.0, 1.0, 1.0, 1.0, 0.41106135664873095, 1.0, 0.8727852282961399, 0.1818130126242097, 1.0, 0.0, 0.0, 0.728757237101151, 0.12412840156331725, 0.062098098858691844, 0.0, 1.0]
GUROBI solution time: 7.888602018356323

